HorasDisponibles = 35 ; 		% Cantidad de horas habiles para que barco pueda partir

NumBarcos = 40 ; 		% Cantidad de barcos que cruzaran el canal

NumCanales = 1;  

Velocidades = [ 
66000  ,		%  Barco 1
415  ,		%  Barco 2
550  ,		%  Barco 3
455  ,		%  Barco 4
535  ,		%  Barco 5
559  ,		%  Barco 6
379  ,		%  Barco 7
587  ,		%  Barco 8
419  ,		%  Barco 9
523  ,		%  Barco 10
232  ,		%  Barco 11
232  ,		%  Barco 12
527  ,		%  Barco 13
754  ,		%  Barco 14
563  ,		%  Barco 15
230  ,		%  Barco 16
495  ,		%  Barco 17
535  ,		%  Barco 18
700  ,		%  Barco 19
621  ,		%  Barco 20
330  ,		%  Barco 21
207  ,		%  Barco 22
448  ,		%  Barco 23
509  ,		%  Barco 24
687  ,		%  Barco 25
702  ,		%  Barco 26
390  ,		%  Barco 27
519  ,		%  Barco 28
657  ,		%  Barco 29
707  ,		%  Barco 30
632  ,		%  Barco 31
534  ,		%  Barco 32
350  ,		%  Barco 33
464  ,		%  Barco 34
464  ,		%  Barco 35
383  ,		%  Barco 36
734  ,		%  Barco 37
434  ,		%  Barco 38
478  ,		%  Barco 39
721  ,		%  Barco 40
544  ,		%  Barco 41
66000  ,		%  Barco 42
 ]; 
HoraEstimadaCruce = [ 
0  ,		%  Barco 1
1  ,		%  Barco 2
31  ,		%  Barco 3
19  ,		%  Barco 4
4  ,		%  Barco 5
34  ,		%  Barco 6
18  ,		%  Barco 7
27  ,		%  Barco 8
13  ,		%  Barco 9
18  ,		%  Barco 10
21  ,		%  Barco 11
12  ,		%  Barco 12
11  ,		%  Barco 13
33  ,		%  Barco 14
3  ,		%  Barco 15
9  ,		%  Barco 16
19  ,		%  Barco 17
1  ,		%  Barco 18
1  ,		%  Barco 19
22  ,		%  Barco 20
15  ,		%  Barco 21
13  ,		%  Barco 22
12  ,		%  Barco 23
19  ,		%  Barco 24
21  ,		%  Barco 25
0  ,		%  Barco 26
19  ,		%  Barco 27
3  ,		%  Barco 28
6  ,		%  Barco 29
32  ,		%  Barco 30
1  ,		%  Barco 31
0  ,		%  Barco 32
1  ,		%  Barco 33
27  ,		%  Barco 34
33  ,		%  Barco 35
15  ,		%  Barco 36
8  ,		%  Barco 37
11  ,		%  Barco 38
5  ,		%  Barco 39
0  ,		%  Barco 40
33  ,		%  Barco 41
35  ,		%  Barco 42
 ]; 
PuntoDeArranque = [ 
0  ,		%  Barco 1
1  ,		%  Barco 2
1  ,		%  Barco 3
0  ,		%  Barco 4
0  ,		%  Barco 5
1  ,		%  Barco 6
0  ,		%  Barco 7
0  ,		%  Barco 8
1  ,		%  Barco 9
1  ,		%  Barco 10
0  ,		%  Barco 11
0  ,		%  Barco 12
1  ,		%  Barco 13
0  ,		%  Barco 14
0  ,		%  Barco 15
1  ,		%  Barco 16
1  ,		%  Barco 17
0  ,		%  Barco 18
1  ,		%  Barco 19
0  ,		%  Barco 20
0  ,		%  Barco 21
1  ,		%  Barco 22
0  ,		%  Barco 23
0  ,		%  Barco 24
0  ,		%  Barco 25
0  ,		%  Barco 26
0  ,		%  Barco 27
1  ,		%  Barco 28
0  ,		%  Barco 29
1  ,		%  Barco 30
0  ,		%  Barco 31
1  ,		%  Barco 32
1  ,		%  Barco 33
1  ,		%  Barco 34
0  ,		%  Barco 35
0  ,		%  Barco 36
0  ,		%  Barco 37
1  ,		%  Barco 38
0  ,		%  Barco 39
0  ,		%  Barco 40
0  ,		%  Barco 41
0  ,		%  Barco 42
 ]; 
